
n_res = 6;
rcap = [72, 70, 207, 226, 258, 206];
rtype = [1, 1, 2, 2, 2, 2];
n_tasks = 50;
modes =  [{1, 2, 3}, {4, 5, 6}, {7, 8, 9}, {10, 11, 12}, {13, 14, 15}, {16, 17, 18}, {19, 20, 21}, {22, 23, 24}, {25, 26, 27}, {28, 29, 30}, {31, 32, 33}, {34, 35, 36}, {37, 38, 39}, {40, 41, 42}, {43, 44, 45}, {46, 47, 48}, {49, 50, 51}, {52, 53, 54}, {55, 56, 57}, {58, 59, 60}, {61, 62, 63}, {64, 65, 66}, {67, 68, 69}, {70, 71, 72}, {73, 74, 75}, {76, 77, 78}, {79, 80, 81}, {82, 83, 84}, {85, 86, 87}, {88, 89, 90}, {91, 92, 93}, {94, 95, 96}, {97, 98, 99}, {100, 101, 102}, {103, 104, 105}, {106, 107, 108}, {109, 110, 111}, {112, 113, 114}, {115, 116, 117}, {118, 119, 120}, {121, 122, 123}, {124, 125, 126}, {127, 128, 129}, {130, 131, 132}, {133, 134, 135}, {136, 137, 138}, {139, 140, 141}, {142, 143, 144}, {145, 146, 147}, {148, 149, 150}];
succ =  [{50, 47, 44, 31, 28, 27, 22, 21, 20, 19, 18, 15, 14}, {50, 47, 45, 44, 42, 38, 28, 26, 22, 15, 14}, {49, 48, 46, 44, 33, 29, 26, 24, 22, 10}, {50, 49, 38, 36, 28, 26, 22, 15, 12}, {48, 46, 41, 29, 27, 22, 20, 18, 13}, {50, 45, 42, 41, 39, 38, 37, 36, 32, 31, 29, 28, 27}, {48, 46, 45, 44, 42, 41, 39, 38, 36, 32, 31, 28, 26}, {47, 44, 43, 42, 38, 36, 28, 15}, {48, 43, 38, 36, 30, 28, 15}, {50, 45, 43, 41, 40, 39, 38, 37, 36, 31, 30, 28}, {47, 43, 41, 39, 37, 35, 28, 19}, {47, 45, 44, 42, 41, 39, 37, 34, 31, 29}, {44, 40, 39, 38, 37, 36, 35, 28}, {49, 48, 46, 39, 37, 36, 35, 34}, {46, 41, 40, 37, 32, 29}, {47, 43, 39, 38, 30, 28}, {41, 40, 38, 36, 34}, {49, 42, 37, 34}, {48, 42, 40, 36}, {45, 39, 38, 37}, {40, 39, 38, 35}, {43, 39, 30}, {36, 34, 31}, {36, 35, 34}, {44, 38, 36}, {37, 34}, {40, 35}, {34}, {35}, {34}, {35}, {34}, {47}, {}, {}, {}, {}, {}, {}, {}, {}, {}, {}, {}, {}, {}, {}, {}, {}, {}];
n_opt = 150;
dur = [4, 7, 9, 4, 6, 9, 5, 6, 10, 1, 5, 10, 6, 7, 10, 1, 4, 8, 1, 6, 8, 3, 5, 9, 6, 8, 9, 4, 5, 6, 5, 7, 8, 5, 8, 9, 2, 5, 6, 4, 5, 8, 4, 7, 8, 6, 8, 9, 1, 2, 8, 1, 4, 6, 2, 6, 7, 3, 5, 9, 2, 4, 9, 7, 8, 9, 3, 6, 10, 2, 4, 9, 2, 3, 9, 5, 7, 10, 1, 2, 10, 6, 8, 9, 6, 8, 10, 2, 4, 5, 2, 5, 6, 1, 2, 3, 4, 5, 10, 6, 8, 9, 6, 8, 9, 5, 8, 10, 5, 6, 8, 3, 4, 10, 3, 5, 9, 3, 9, 10, 3, 4, 7, 4, 5, 9, 1, 2, 7, 3, 7, 9, 4, 7, 10, 1, 5, 7, 1, 2, 9, 3, 4, 8, 1, 4, 5, 5, 9, 10];
rreq = [|3, 2, 2, 4, 4, 4, 3, 1, 1, 10, 7, 2, 5, 3, 3, 6, 5, 5, 5, 5, 5, 6, 4, 2, 7, 7, 6, 7, 7, 4, 2, 2, 2, 9, 8, 8, 6, 5, 5, 10, 8, 7, 10, 10, 10, 7, 5, 5, 5, 5, 2, 7, 6, 5, 9, 8, 7, 7, 4, 4, 7, 6, 5, 5, 3, 2, 5, 5, 5, 4, 3, 3, 9, 6, 3, 10, 9, 9, 5, 3, 3, 4, 4, 4, 9, 7, 7, 7, 6, 5, 3, 2, 2, 7, 7, 7, 10, 10, 10, 10, 5, 1, 3, 2, 1, 4, 4, 4, 10, 10, 10, 7, 7, 7, 5, 5, 4, 9, 7, 6, 10, 10, 10, 4, 4, 4, 8, 8, 8, 2, 1, 1, 3, 1, 1, 2, 2, 2, 7, 6, 4, 9, 7, 7, 5, 5, 4, 9, 8, 7
 |6, 3, 2, 5, 5, 3, 6, 5, 2, 6, 3, 3, 6, 5, 5, 3, 2, 2, 9, 7, 6, 3, 2, 2, 4, 3, 3, 4, 4, 4, 7, 7, 7, 6, 6, 6, 7, 7, 4, 4, 3, 2, 8, 7, 5, 6, 6, 4, 5, 4, 3, 7, 6, 5, 7, 7, 7, 7, 7, 6, 10, 7, 4, 7, 7, 6, 8, 6, 5, 7, 6, 3, 4, 4, 4, 6, 5, 5, 9, 8, 8, 7, 7, 5, 4, 2, 1, 4, 3, 2, 3, 2, 2, 6, 3, 1, 10, 6, 5, 3, 2, 1, 7, 7, 7, 4, 3, 2, 7, 5, 4, 10, 10, 10, 6, 4, 2, 5, 5, 5, 8, 7, 4, 8, 8, 6, 7, 6, 6, 4, 4, 4, 7, 5, 5, 6, 5, 2, 9, 9, 7, 8, 7, 6, 5, 5, 2, 4, 3, 3
 |4, 4, 3, 7, 7, 3, 8, 6, 3, 2, 2, 2, 3, 2, 2, 8, 7, 3, 1, 1, 1, 7, 6, 6, 9, 8, 8, 10, 10, 10, 7, 4, 3, 10, 8, 5, 9, 5, 2, 7, 5, 3, 7, 7, 5, 7, 3, 3, 3, 3, 2, 6, 4, 4, 3, 2, 2, 2, 2, 2, 9, 6, 6, 5, 5, 3, 9, 8, 7, 5, 3, 2, 2, 1, 1, 6, 5, 4, 9, 7, 3, 3, 2, 2, 6, 6, 6, 3, 3, 2, 9, 7, 7, 7, 6, 6, 4, 3, 2, 7, 4, 2, 7, 6, 6, 9, 8, 6, 6, 5, 5, 8, 6, 1, 3, 2, 2, 8, 6, 5, 7, 5, 3, 6, 6, 1, 4, 3, 2, 7, 3, 2, 7, 3, 1, 4, 4, 4, 5, 4, 2, 7, 7, 6, 5, 5, 5, 3, 1, 1
 |10, 9, 8, 6, 6, 6, 5, 4, 3, 5, 4, 2, 3, 2, 1, 10, 5, 3, 1, 1, 1, 10, 6, 5, 9, 8, 6, 3, 2, 2, 8, 8, 8, 5, 5, 3, 1, 1, 1, 8, 6, 4, 5, 5, 4, 2, 1, 1, 5, 3, 3, 6, 5, 2, 8, 7, 4, 10, 8, 6, 9, 7, 6, 9, 9, 9, 9, 8, 8, 5, 4, 4, 4, 3, 3, 3, 3, 3, 7, 7, 5, 1, 1, 1, 8, 5, 2, 3, 2, 2, 9, 6, 5, 5, 4, 3, 6, 4, 3, 2, 2, 2, 5, 4, 2, 5, 4, 3, 6, 4, 3, 3, 3, 3, 9, 9, 9, 4, 4, 2, 10, 6, 2, 6, 5, 5, 10, 9, 9, 8, 4, 2, 4, 4, 2, 8, 8, 6, 5, 5, 5, 6, 5, 5, 9, 8, 8, 9, 7, 5
 |8, 5, 3, 6, 5, 5, 9, 5, 2, 1, 1, 1, 6, 6, 5, 6, 6, 6, 8, 8, 6, 5, 3, 2, 3, 3, 3, 5, 5, 5, 9, 8, 7, 10, 10, 10, 8, 7, 7, 8, 7, 7, 8, 6, 6, 8, 7, 1, 5, 3, 3, 8, 5, 2, 6, 4, 4, 8, 8, 8, 10, 8, 8, 7, 6, 5, 8, 7, 6, 8, 7, 5, 9, 9, 9, 8, 6, 5, 8, 8, 6, 8, 8, 7, 4, 4, 4, 7, 6, 6, 4, 3, 2, 6, 5, 3, 8, 6, 6, 8, 8, 8, 7, 6, 6, 8, 3, 1, 6, 5, 3, 4, 4, 4, 5, 4, 4, 7, 5, 5, 9, 7, 5, 8, 4, 3, 7, 4, 4, 6, 4, 2, 4, 2, 2, 8, 7, 7, 6, 5, 5, 5, 5, 2, 4, 2, 2, 7, 6, 3
 |8, 8, 7, 4, 4, 4, 9, 7, 6, 3, 1, 1, 2, 2, 2, 3, 2, 2, 5, 4, 4, 4, 3, 3, 5, 3, 2, 5, 5, 4, 8, 6, 6, 9, 9, 8, 7, 4, 4, 5, 5, 5, 9, 7, 4, 5, 4, 2, 6, 5, 5, 4, 3, 3, 10, 7, 2, 5, 4, 3, 6, 3, 1, 6, 4, 3, 3, 1, 1, 7, 7, 5, 4, 4, 4, 7, 6, 5, 9, 6, 4, 6, 3, 1, 5, 4, 4, 3, 1, 1, 7, 7, 5, 8, 4, 4, 9, 8, 7, 4, 4, 3, 7, 7, 6, 6, 3, 2, 6, 5, 5, 9, 7, 6, 4, 2, 1, 6, 6, 6, 3, 3, 2, 10, 8, 5, 1, 1, 1, 5, 4, 4, 2, 1, 1, 7, 6, 5, 6, 6, 5, 8, 5, 3, 8, 5, 1, 1, 1, 1|];